p cnf 773 2271
c inputs: 1 2 3 4 5 6 7 8 9 10 11 12 13 14 15 16
c variables for gates: 17 ... 757
c outputs: 758 759 760 761 762 763 764 765 766 767 768 769 770 771 772 773
c random input: 1 -2 3 4 -5 -6 7 -8 -9 -10 11 12 13 -14 -15 16
17 -2 -9 0
-17 2 0
-17 9 0
18 -1 -10 0
-18 1 0
-18 10 0
19 -17 18 0
-19 17 0
-19 -18 0
20 -18 17 0
-20 18 0
-20 -17 0
21 20 19 0
-21 -20 0
-21 -19 0
22 -2 -9 0
-22 2 0
-22 9 0
23 -1 -10 0
-23 1 0
-23 10 0
24 -22 -23 0
-24 22 0
-24 23 0
25 -3 -9 0
-25 3 0
-25 9 0
26 -2 -10 0
-26 2 0
-26 10 0
27 -26 -25 0
-27 26 0
-27 25 0
28 -3 -9 0
-28 3 0
-28 9 0
29 -28 -24 0
-29 28 0
-29 24 0
30 -2 -10 0
-30 2 0
-30 10 0
31 -30 -24 0
-31 30 0
-31 24 0
32 29 31 0
-32 -29 0
-32 -31 0
33 27 -32 0
-33 -27 0
-33 32 0
34 -3 -9 0
-34 3 0
-34 9 0
35 -2 -10 0
-35 2 0
-35 10 0
36 -35 24 0
-36 35 0
-36 -24 0
37 35 -24 0
-37 -35 0
-37 24 0
38 37 36 0
-38 -37 0
-38 -36 0
39 -34 -38 0
-39 34 0
-39 38 0
40 34 38 0
-40 -34 0
-40 -38 0
41 40 39 0
-41 -40 0
-41 -39 0
42 -4 -9 0
-42 4 0
-42 9 0
43 -3 -10 0
-43 3 0
-43 10 0
44 -42 -43 0
-44 42 0
-44 43 0
45 -4 -9 0
-45 4 0
-45 9 0
46 -45 33 0
-46 45 0
-46 -33 0
47 -3 -10 0
-47 3 0
-47 10 0
48 -47 33 0
-48 47 0
-48 -33 0
49 48 46 0
-49 -48 0
-49 -46 0
50 44 -49 0
-50 -44 0
-50 49 0
51 -4 -9 0
-51 4 0
-51 9 0
52 -3 -10 0
-52 3 0
-52 10 0
53 -52 -33 0
-53 52 0
-53 33 0
54 52 33 0
-54 -52 0
-54 -33 0
55 53 54 0
-55 -53 0
-55 -54 0
56 -51 -55 0
-56 51 0
-56 55 0
57 51 55 0
-57 -51 0
-57 -55 0
58 57 56 0
-58 -57 0
-58 -56 0
59 -5 -9 0
-59 5 0
-59 9 0
60 -4 -10 0
-60 4 0
-60 10 0
61 -60 -59 0
-61 60 0
-61 59 0
62 -5 -9 0
-62 5 0
-62 9 0
63 -62 50 0
-63 62 0
-63 -50 0
64 -4 -10 0
-64 4 0
-64 10 0
65 -64 50 0
-65 64 0
-65 -50 0
66 65 63 0
-66 -65 0
-66 -63 0
67 61 -66 0
-67 -61 0
-67 66 0
68 -5 -9 0
-68 5 0
-68 9 0
69 -4 -10 0
-69 4 0
-69 10 0
70 -69 -50 0
-70 69 0
-70 50 0
71 69 50 0
-71 -69 0
-71 -50 0
72 71 70 0
-72 -71 0
-72 -70 0
73 -68 -72 0
-73 68 0
-73 72 0
74 68 72 0
-74 -68 0
-74 -72 0
75 74 73 0
-75 -74 0
-75 -73 0
76 -6 -9 0
-76 6 0
-76 9 0
77 -5 -10 0
-77 5 0
-77 10 0
78 -76 -77 0
-78 76 0
-78 77 0
79 -6 -9 0
-79 6 0
-79 9 0
80 -79 67 0
-80 79 0
-80 -67 0
81 -5 -10 0
-81 5 0
-81 10 0
82 -81 67 0
-82 81 0
-82 -67 0
83 80 82 0
-83 -80 0
-83 -82 0
84 78 -83 0
-84 -78 0
-84 83 0
85 -6 -9 0
-85 6 0
-85 9 0
86 -5 -10 0
-86 5 0
-86 10 0
87 -86 -67 0
-87 86 0
-87 67 0
88 86 67 0
-88 -86 0
-88 -67 0
89 88 87 0
-89 -88 0
-89 -87 0
90 -85 -89 0
-90 85 0
-90 89 0
91 85 89 0
-91 -85 0
-91 -89 0
92 91 90 0
-92 -91 0
-92 -90 0
93 -7 -9 0
-93 7 0
-93 9 0
94 -6 -10 0
-94 6 0
-94 10 0
95 -94 -93 0
-95 94 0
-95 93 0
96 -7 -9 0
-96 7 0
-96 9 0
97 -96 84 0
-97 96 0
-97 -84 0
98 -6 -10 0
-98 6 0
-98 10 0
99 -98 84 0
-99 98 0
-99 -84 0
100 99 97 0
-100 -99 0
-100 -97 0
101 95 -100 0
-101 -95 0
-101 100 0
102 -7 -9 0
-102 7 0
-102 9 0
103 -6 -10 0
-103 6 0
-103 10 0
104 -103 -84 0
-104 103 0
-104 84 0
105 103 84 0
-105 -103 0
-105 -84 0
106 104 105 0
-106 -104 0
-106 -105 0
107 -102 -106 0
-107 102 0
-107 106 0
108 102 106 0
-108 -102 0
-108 -106 0
109 108 107 0
-109 -108 0
-109 -107 0
110 -8 -9 0
-110 8 0
-110 9 0
111 -7 -10 0
-111 7 0
-111 10 0
112 -111 -110 0
-112 111 0
-112 110 0
113 -8 -9 0
-113 8 0
-113 9 0
114 -113 101 0
-114 113 0
-114 -101 0
115 -7 -10 0
-115 7 0
-115 10 0
116 -115 101 0
-116 115 0
-116 -101 0
117 116 114 0
-117 -116 0
-117 -114 0
118 112 -117 0
-118 -112 0
-118 117 0
119 -8 -9 0
-119 8 0
-119 9 0
120 -7 -10 0
-120 7 0
-120 10 0
121 -120 -101 0
-121 120 0
-121 101 0
122 120 101 0
-122 -120 0
-122 -101 0
123 122 121 0
-123 -122 0
-123 -121 0
124 -119 -123 0
-124 119 0
-124 123 0
125 119 123 0
-125 -119 0
-125 -123 0
126 125 124 0
-126 -125 0
-126 -124 0
127 -8 -10 0
-127 8 0
-127 10 0
128 -127 118 0
-128 127 0
-128 -118 0
129 -8 -10 0
-129 8 0
-129 10 0
130 -129 -118 0
-130 129 0
-130 118 0
131 129 118 0
-131 -129 0
-131 -118 0
132 130 131 0
-132 -130 0
-132 -131 0
133 -1 -11 0
-133 1 0
-133 11 0
134 133 41 0
-134 -133 0
-134 -41 0
135 -133 -41 0
-135 133 0
-135 41 0
136 135 134 0
-136 -135 0
-136 -134 0
137 -1 -11 0
-137 1 0
-137 11 0
138 -137 41 0
-138 137 0
-138 -41 0
139 -2 -11 0
-139 2 0
-139 11 0
140 -139 58 0
-140 139 0
-140 -58 0
141 58 -138 0
-141 -58 0
-141 138 0
142 -2 -11 0
-142 2 0
-142 11 0
143 -142 -138 0
-143 142 0
-143 138 0
144 143 141 0
-144 -143 0
-144 -141 0
145 140 -144 0
-145 -140 0
-145 144 0
146 -2 -11 0
-146 2 0
-146 11 0
147 -146 138 0
-147 146 0
-147 -138 0
148 146 -138 0
-148 -146 0
-148 138 0
149 148 147 0
-149 -148 0
-149 -147 0
150 58 -149 0
-150 -58 0
-150 149 0
151 -58 149 0
-151 58 0
-151 -149 0
152 151 150 0
-152 -151 0
-152 -150 0
153 -3 -11 0
-153 3 0
-153 11 0
154 -153 75 0
-154 153 0
-154 -75 0
155 75 145 0
-155 -75 0
-155 -145 0
156 -3 -11 0
-156 3 0
-156 11 0
157 -156 145 0
-157 156 0
-157 -145 0
158 155 157 0
-158 -155 0
-158 -157 0
159 154 -158 0
-159 -154 0
-159 158 0
160 -3 -11 0
-160 3 0
-160 11 0
161 -160 -145 0
-161 160 0
-161 145 0
162 160 145 0
-162 -160 0
-162 -145 0
163 161 162 0
-163 -161 0
-163 -162 0
164 -163 75 0
-164 163 0
-164 -75 0
165 163 -75 0
-165 -163 0
-165 75 0
166 165 164 0
-166 -165 0
-166 -164 0
167 -4 -11 0
-167 4 0
-167 11 0
168 -167 92 0
-168 167 0
-168 -92 0
169 159 92 0
-169 -159 0
-169 -92 0
170 -4 -11 0
-170 4 0
-170 11 0
171 -170 159 0
-171 170 0
-171 -159 0
172 171 169 0
-172 -171 0
-172 -169 0
173 168 -172 0
-173 -168 0
-173 172 0
174 -4 -11 0
-174 4 0
-174 11 0
175 -174 -159 0
-175 174 0
-175 159 0
176 174 159 0
-176 -174 0
-176 -159 0
177 176 175 0
-177 -176 0
-177 -175 0
178 92 -177 0
-178 -92 0
-178 177 0
179 -92 177 0
-179 92 0
-179 -177 0
180 179 178 0
-180 -179 0
-180 -178 0
181 -5 -11 0
-181 5 0
-181 11 0
182 -181 109 0
-182 181 0
-182 -109 0
183 109 173 0
-183 -109 0
-183 -173 0
184 -5 -11 0
-184 5 0
-184 11 0
185 -184 173 0
-185 184 0
-185 -173 0
186 185 183 0
-186 -185 0
-186 -183 0
187 182 -186 0
-187 -182 0
-187 186 0
188 -5 -11 0
-188 5 0
-188 11 0
189 -188 -173 0
-189 188 0
-189 173 0
190 188 173 0
-190 -188 0
-190 -173 0
191 189 190 0
-191 -189 0
-191 -190 0
192 -191 109 0
-192 191 0
-192 -109 0
193 191 -109 0
-193 -191 0
-193 109 0
194 192 193 0
-194 -192 0
-194 -193 0
195 -6 -11 0
-195 6 0
-195 11 0
196 -195 126 0
-196 195 0
-196 -126 0
197 187 126 0
-197 -187 0
-197 -126 0
198 -6 -11 0
-198 6 0
-198 11 0
199 -198 187 0
-199 198 0
-199 -187 0
200 199 197 0
-200 -199 0
-200 -197 0
201 196 -200 0
-201 -196 0
-201 200 0
202 -6 -11 0
-202 6 0
-202 11 0
203 -202 -187 0
-203 202 0
-203 187 0
204 202 187 0
-204 -202 0
-204 -187 0
205 203 204 0
-205 -203 0
-205 -204 0
206 -205 126 0
-206 205 0
-206 -126 0
207 205 -126 0
-207 -205 0
-207 126 0
208 207 206 0
-208 -207 0
-208 -206 0
209 -7 -11 0
-209 7 0
-209 11 0
210 -209 132 0
-210 209 0
-210 -132 0
211 201 132 0
-211 -201 0
-211 -132 0
212 -7 -11 0
-212 7 0
-212 11 0
213 -212 201 0
-213 212 0
-213 -201 0
214 213 211 0
-214 -213 0
-214 -211 0
215 210 -214 0
-215 -210 0
-215 214 0
216 -7 -11 0
-216 7 0
-216 11 0
217 -216 -201 0
-217 216 0
-217 201 0
218 216 201 0
-218 -216 0
-218 -201 0
219 218 217 0
-219 -218 0
-219 -217 0
220 -219 132 0
-220 219 0
-220 -132 0
221 219 -132 0
-221 -219 0
-221 132 0
222 221 220 0
-222 -221 0
-222 -220 0
223 -8 -11 0
-223 8 0
-223 11 0
224 -223 -128 0
-224 223 0
-224 128 0
225 215 -128 0
-225 -215 0
-225 128 0
226 -8 -11 0
-226 8 0
-226 11 0
227 -226 215 0
-227 226 0
-227 -215 0
228 227 225 0
-228 -227 0
-228 -225 0
229 -228 224 0
-229 228 0
-229 -224 0
230 -8 -11 0
-230 8 0
-230 11 0
231 -230 -215 0
-231 230 0
-231 215 0
232 230 215 0
-232 -230 0
-232 -215 0
233 232 231 0
-233 -232 0
-233 -231 0
234 -128 -233 0
-234 128 0
-234 233 0
235 128 233 0
-235 -128 0
-235 -233 0
236 235 234 0
-236 -235 0
-236 -234 0
237 -1 -12 0
-237 1 0
-237 12 0
238 237 152 0
-238 -237 0
-238 -152 0
239 -237 -152 0
-239 237 0
-239 152 0
240 238 239 0
-240 -238 0
-240 -239 0
241 -1 -12 0
-241 1 0
-241 12 0
242 -241 152 0
-242 241 0
-242 -152 0
243 -2 -12 0
-243 2 0
-243 12 0
244 -243 166 0
-244 243 0
-244 -166 0
245 -242 166 0
-245 242 0
-245 -166 0
246 -2 -12 0
-246 2 0
-246 12 0
247 -246 -242 0
-247 246 0
-247 242 0
248 247 245 0
-248 -247 0
-248 -245 0
249 244 -248 0
-249 -244 0
-249 248 0
250 -2 -12 0
-250 2 0
-250 12 0
251 -250 242 0
-251 250 0
-251 -242 0
252 250 -242 0
-252 -250 0
-252 242 0
253 251 252 0
-253 -251 0
-253 -252 0
254 166 -253 0
-254 -166 0
-254 253 0
255 -166 253 0
-255 166 0
-255 -253 0
256 255 254 0
-256 -255 0
-256 -254 0
257 -3 -12 0
-257 3 0
-257 12 0
258 -257 180 0
-258 257 0
-258 -180 0
259 180 249 0
-259 -180 0
-259 -249 0
260 -3 -12 0
-260 3 0
-260 12 0
261 -260 249 0
-261 260 0
-261 -249 0
262 259 261 0
-262 -259 0
-262 -261 0
263 258 -262 0
-263 -258 0
-263 262 0
264 -3 -12 0
-264 3 0
-264 12 0
265 -264 -249 0
-265 264 0
-265 249 0
266 264 249 0
-266 -264 0
-266 -249 0
267 266 265 0
-267 -266 0
-267 -265 0
268 180 -267 0
-268 -180 0
-268 267 0
269 -180 267 0
-269 180 0
-269 -267 0
270 269 268 0
-270 -269 0
-270 -268 0
271 -4 -12 0
-271 4 0
-271 12 0
272 -271 194 0
-272 271 0
-272 -194 0
273 194 263 0
-273 -194 0
-273 -263 0
274 -4 -12 0
-274 4 0
-274 12 0
275 -274 263 0
-275 274 0
-275 -263 0
276 275 273 0
-276 -275 0
-276 -273 0
277 272 -276 0
-277 -272 0
-277 276 0
278 -4 -12 0
-278 4 0
-278 12 0
279 -278 -263 0
-279 278 0
-279 263 0
280 278 263 0
-280 -278 0
-280 -263 0
281 279 280 0
-281 -279 0
-281 -280 0
282 -281 194 0
-282 281 0
-282 -194 0
283 281 -194 0
-283 -281 0
-283 194 0
284 282 283 0
-284 -282 0
-284 -283 0
285 -5 -12 0
-285 5 0
-285 12 0
286 -285 208 0
-286 285 0
-286 -208 0
287 208 277 0
-287 -208 0
-287 -277 0
288 -5 -12 0
-288 5 0
-288 12 0
289 -288 277 0
-289 288 0
-289 -277 0
290 289 287 0
-290 -289 0
-290 -287 0
291 286 -290 0
-291 -286 0
-291 290 0
292 -5 -12 0
-292 5 0
-292 12 0
293 -292 -277 0
-293 292 0
-293 277 0
294 292 277 0
-294 -292 0
-294 -277 0
295 293 294 0
-295 -293 0
-295 -294 0
296 208 -295 0
-296 -208 0
-296 295 0
297 -208 295 0
-297 208 0
-297 -295 0
298 297 296 0
-298 -297 0
-298 -296 0
299 -6 -12 0
-299 6 0
-299 12 0
300 -299 222 0
-300 299 0
-300 -222 0
301 291 222 0
-301 -291 0
-301 -222 0
302 -6 -12 0
-302 6 0
-302 12 0
303 -302 291 0
-303 302 0
-303 -291 0
304 303 301 0
-304 -303 0
-304 -301 0
305 -304 300 0
-305 304 0
-305 -300 0
306 -6 -12 0
-306 6 0
-306 12 0
307 -306 -291 0
-307 306 0
-307 291 0
308 306 291 0
-308 -306 0
-308 -291 0
309 307 308 0
-309 -307 0
-309 -308 0
310 -309 222 0
-310 309 0
-310 -222 0
311 309 -222 0
-311 -309 0
-311 222 0
312 311 310 0
-312 -311 0
-312 -310 0
313 -7 -12 0
-313 7 0
-313 12 0
314 -313 236 0
-314 313 0
-314 -236 0
315 305 236 0
-315 -305 0
-315 -236 0
316 -7 -12 0
-316 7 0
-316 12 0
317 -316 305 0
-317 316 0
-317 -305 0
318 317 315 0
-318 -317 0
-318 -315 0
319 -318 314 0
-319 318 0
-319 -314 0
320 -7 -12 0
-320 7 0
-320 12 0
321 -320 -305 0
-321 320 0
-321 305 0
322 320 305 0
-322 -320 0
-322 -305 0
323 321 322 0
-323 -321 0
-323 -322 0
324 -323 236 0
-324 323 0
-324 -236 0
325 323 -236 0
-325 -323 0
-325 236 0
326 324 325 0
-326 -324 0
-326 -325 0
327 -8 -12 0
-327 8 0
-327 12 0
328 -327 229 0
-328 327 0
-328 -229 0
329 229 319 0
-329 -229 0
-329 -319 0
330 -8 -12 0
-330 8 0
-330 12 0
331 -330 319 0
-331 330 0
-331 -319 0
332 329 331 0
-332 -329 0
-332 -331 0
333 -332 328 0
-333 332 0
-333 -328 0
334 -8 -12 0
-334 8 0
-334 12 0
335 -334 -319 0
-335 334 0
-335 319 0
336 334 319 0
-336 -334 0
-336 -319 0
337 336 335 0
-337 -336 0
-337 -335 0
338 229 -337 0
-338 -229 0
-338 337 0
339 -229 337 0
-339 229 0
-339 -337 0
340 339 338 0
-340 -339 0
-340 -338 0
341 -1 -13 0
-341 1 0
-341 13 0
342 341 256 0
-342 -341 0
-342 -256 0
343 -341 -256 0
-343 341 0
-343 256 0
344 343 342 0
-344 -343 0
-344 -342 0
345 -1 -13 0
-345 1 0
-345 13 0
346 -345 256 0
-346 345 0
-346 -256 0
347 -2 -13 0
-347 2 0
-347 13 0
348 -347 270 0
-348 347 0
-348 -270 0
349 -346 270 0
-349 346 0
-349 -270 0
350 -2 -13 0
-350 2 0
-350 13 0
351 -350 -346 0
-351 350 0
-351 346 0
352 351 349 0
-352 -351 0
-352 -349 0
353 -352 348 0
-353 352 0
-353 -348 0
354 -2 -13 0
-354 2 0
-354 13 0
355 -354 346 0
-355 354 0
-355 -346 0
356 354 -346 0
-356 -354 0
-356 346 0
357 356 355 0
-357 -356 0
-357 -355 0
358 270 -357 0
-358 -270 0
-358 357 0
359 -270 357 0
-359 270 0
-359 -357 0
360 359 358 0
-360 -359 0
-360 -358 0
361 -3 -13 0
-361 3 0
-361 13 0
362 -361 284 0
-362 361 0
-362 -284 0
363 353 284 0
-363 -353 0
-363 -284 0
364 -3 -13 0
-364 3 0
-364 13 0
365 -364 353 0
-365 364 0
-365 -353 0
366 363 365 0
-366 -363 0
-366 -365 0
367 -366 362 0
-367 366 0
-367 -362 0
368 -3 -13 0
-368 3 0
-368 13 0
369 -368 -353 0
-369 368 0
-369 353 0
370 368 353 0
-370 -368 0
-370 -353 0
371 369 370 0
-371 -369 0
-371 -370 0
372 284 -371 0
-372 -284 0
-372 371 0
373 -284 371 0
-373 284 0
-373 -371 0
374 373 372 0
-374 -373 0
-374 -372 0
375 -4 -13 0
-375 4 0
-375 13 0
376 -375 298 0
-376 375 0
-376 -298 0
377 367 298 0
-377 -367 0
-377 -298 0
378 -4 -13 0
-378 4 0
-378 13 0
379 -378 367 0
-379 378 0
-379 -367 0
380 379 377 0
-380 -379 0
-380 -377 0
381 -380 376 0
-381 380 0
-381 -376 0
382 -4 -13 0
-382 4 0
-382 13 0
383 -382 -367 0
-383 382 0
-383 367 0
384 382 367 0
-384 -382 0
-384 -367 0
385 384 383 0
-385 -384 0
-385 -383 0
386 -385 298 0
-386 385 0
-386 -298 0
387 385 -298 0
-387 -385 0
-387 298 0
388 387 386 0
-388 -387 0
-388 -386 0
389 -5 -13 0
-389 5 0
-389 13 0
390 -389 312 0
-390 389 0
-390 -312 0
391 381 312 0
-391 -381 0
-391 -312 0
392 -5 -13 0
-392 5 0
-392 13 0
393 -392 381 0
-393 392 0
-393 -381 0
394 393 391 0
-394 -393 0
-394 -391 0
395 -394 390 0
-395 394 0
-395 -390 0
396 -5 -13 0
-396 5 0
-396 13 0
397 -396 -381 0
-397 396 0
-397 381 0
398 396 381 0
-398 -396 0
-398 -381 0
399 397 398 0
-399 -397 0
-399 -398 0
400 -399 312 0
-400 399 0
-400 -312 0
401 399 -312 0
-401 -399 0
-401 312 0
402 401 400 0
-402 -401 0
-402 -400 0
403 -6 -13 0
-403 6 0
-403 13 0
404 -403 326 0
-404 403 0
-404 -326 0
405 395 326 0
-405 -395 0
-405 -326 0
406 -6 -13 0
-406 6 0
-406 13 0
407 -406 395 0
-407 406 0
-407 -395 0
408 407 405 0
-408 -407 0
-408 -405 0
409 -408 404 0
-409 408 0
-409 -404 0
410 -6 -13 0
-410 6 0
-410 13 0
411 -410 -395 0
-411 410 0
-411 395 0
412 410 395 0
-412 -410 0
-412 -395 0
413 412 411 0
-413 -412 0
-413 -411 0
414 -413 326 0
-414 413 0
-414 -326 0
415 413 -326 0
-415 -413 0
-415 326 0
416 414 415 0
-416 -414 0
-416 -415 0
417 -7 -13 0
-417 7 0
-417 13 0
418 -417 340 0
-418 417 0
-418 -340 0
419 409 340 0
-419 -409 0
-419 -340 0
420 -7 -13 0
-420 7 0
-420 13 0
421 -420 409 0
-421 420 0
-421 -409 0
422 419 421 0
-422 -419 0
-422 -421 0
423 418 -422 0
-423 -418 0
-423 422 0
424 -7 -13 0
-424 7 0
-424 13 0
425 -424 -409 0
-425 424 0
-425 409 0
426 424 409 0
-426 -424 0
-426 -409 0
427 425 426 0
-427 -425 0
-427 -426 0
428 -427 340 0
-428 427 0
-428 -340 0
429 427 -340 0
-429 -427 0
-429 340 0
430 428 429 0
-430 -428 0
-430 -429 0
431 -8 -13 0
-431 8 0
-431 13 0
432 -431 333 0
-432 431 0
-432 -333 0
433 423 333 0
-433 -423 0
-433 -333 0
434 -8 -13 0
-434 8 0
-434 13 0
435 -434 423 0
-435 434 0
-435 -423 0
436 433 435 0
-436 -433 0
-436 -435 0
437 -436 432 0
-437 436 0
-437 -432 0
438 -8 -13 0
-438 8 0
-438 13 0
439 -438 -423 0
-439 438 0
-439 423 0
440 438 423 0
-440 -438 0
-440 -423 0
441 439 440 0
-441 -439 0
-441 -440 0
442 -441 333 0
-442 441 0
-442 -333 0
443 441 -333 0
-443 -441 0
-443 333 0
444 443 442 0
-444 -443 0
-444 -442 0
445 -1 -14 0
-445 1 0
-445 14 0
446 445 360 0
-446 -445 0
-446 -360 0
447 -445 -360 0
-447 445 0
-447 360 0
448 447 446 0
-448 -447 0
-448 -446 0
449 -1 -14 0
-449 1 0
-449 14 0
450 -449 360 0
-450 449 0
-450 -360 0
451 -2 -14 0
-451 2 0
-451 14 0
452 -451 374 0
-452 451 0
-452 -374 0
453 -450 374 0
-453 450 0
-453 -374 0
454 -2 -14 0
-454 2 0
-454 14 0
455 -454 -450 0
-455 454 0
-455 450 0
456 455 453 0
-456 -455 0
-456 -453 0
457 -456 452 0
-457 456 0
-457 -452 0
458 -2 -14 0
-458 2 0
-458 14 0
459 -458 450 0
-459 458 0
-459 -450 0
460 458 -450 0
-460 -458 0
-460 450 0
461 460 459 0
-461 -460 0
-461 -459 0
462 374 -461 0
-462 -374 0
-462 461 0
463 -374 461 0
-463 374 0
-463 -461 0
464 463 462 0
-464 -463 0
-464 -462 0
465 -3 -14 0
-465 3 0
-465 14 0
466 -465 388 0
-466 465 0
-466 -388 0
467 388 457 0
-467 -388 0
-467 -457 0
468 -3 -14 0
-468 3 0
-468 14 0
469 -468 457 0
-469 468 0
-469 -457 0
470 467 469 0
-470 -467 0
-470 -469 0
471 466 -470 0
-471 -466 0
-471 470 0
472 -3 -14 0
-472 3 0
-472 14 0
473 -472 -457 0
-473 472 0
-473 457 0
474 472 457 0
-474 -472 0
-474 -457 0
475 474 473 0
-475 -474 0
-475 -473 0
476 -475 388 0
-476 475 0
-476 -388 0
477 475 -388 0
-477 -475 0
-477 388 0
478 476 477 0
-478 -476 0
-478 -477 0
479 -4 -14 0
-479 4 0
-479 14 0
480 -479 402 0
-480 479 0
-480 -402 0
481 471 402 0
-481 -471 0
-481 -402 0
482 -4 -14 0
-482 4 0
-482 14 0
483 -482 471 0
-483 482 0
-483 -471 0
484 483 481 0
-484 -483 0
-484 -481 0
485 480 -484 0
-485 -480 0
-485 484 0
486 -4 -14 0
-486 4 0
-486 14 0
487 -486 -471 0
-487 486 0
-487 471 0
488 486 471 0
-488 -486 0
-488 -471 0
489 487 488 0
-489 -487 0
-489 -488 0
490 402 -489 0
-490 -402 0
-490 489 0
491 -402 489 0
-491 402 0
-491 -489 0
492 491 490 0
-492 -491 0
-492 -490 0
493 -5 -14 0
-493 5 0
-493 14 0
494 -493 416 0
-494 493 0
-494 -416 0
495 485 416 0
-495 -485 0
-495 -416 0
496 -5 -14 0
-496 5 0
-496 14 0
497 -496 485 0
-497 496 0
-497 -485 0
498 497 495 0
-498 -497 0
-498 -495 0
499 494 -498 0
-499 -494 0
-499 498 0
500 -5 -14 0
-500 5 0
-500 14 0
501 -500 -485 0
-501 500 0
-501 485 0
502 500 485 0
-502 -500 0
-502 -485 0
503 502 501 0
-503 -502 0
-503 -501 0
504 416 -503 0
-504 -416 0
-504 503 0
505 -416 503 0
-505 416 0
-505 -503 0
506 505 504 0
-506 -505 0
-506 -504 0
507 -6 -14 0
-507 6 0
-507 14 0
508 -507 430 0
-508 507 0
-508 -430 0
509 430 499 0
-509 -430 0
-509 -499 0
510 -6 -14 0
-510 6 0
-510 14 0
511 -510 499 0
-511 510 0
-511 -499 0
512 511 509 0
-512 -511 0
-512 -509 0
513 508 -512 0
-513 -508 0
-513 512 0
514 -6 -14 0
-514 6 0
-514 14 0
515 -514 -499 0
-515 514 0
-515 499 0
516 514 499 0
-516 -514 0
-516 -499 0
517 516 515 0
-517 -516 0
-517 -515 0
518 -517 430 0
-518 517 0
-518 -430 0
519 517 -430 0
-519 -517 0
-519 430 0
520 518 519 0
-520 -518 0
-520 -519 0
521 -7 -14 0
-521 7 0
-521 14 0
522 -521 444 0
-522 521 0
-522 -444 0
523 444 513 0
-523 -444 0
-523 -513 0
524 -7 -14 0
-524 7 0
-524 14 0
525 -524 513 0
-525 524 0
-525 -513 0
526 523 525 0
-526 -523 0
-526 -525 0
527 522 -526 0
-527 -522 0
-527 526 0
528 -7 -14 0
-528 7 0
-528 14 0
529 -528 -513 0
-529 528 0
-529 513 0
530 528 513 0
-530 -528 0
-530 -513 0
531 529 530 0
-531 -529 0
-531 -530 0
532 444 -531 0
-532 -444 0
-532 531 0
533 -444 531 0
-533 444 0
-533 -531 0
534 532 533 0
-534 -532 0
-534 -533 0
535 -8 -14 0
-535 8 0
-535 14 0
536 -535 437 0
-536 535 0
-536 -437 0
537 437 527 0
-537 -437 0
-537 -527 0
538 -8 -14 0
-538 8 0
-538 14 0
539 -538 527 0
-539 538 0
-539 -527 0
540 537 539 0
-540 -537 0
-540 -539 0
541 536 -540 0
-541 -536 0
-541 540 0
542 -8 -14 0
-542 8 0
-542 14 0
543 -542 -527 0
-543 542 0
-543 527 0
544 542 527 0
-544 -542 0
-544 -527 0
545 543 544 0
-545 -543 0
-545 -544 0
546 -545 437 0
-546 545 0
-546 -437 0
547 545 -437 0
-547 -545 0
-547 437 0
548 547 546 0
-548 -547 0
-548 -546 0
549 -1 -15 0
-549 1 0
-549 15 0
550 549 464 0
-550 -549 0
-550 -464 0
551 -549 -464 0
-551 549 0
-551 464 0
552 551 550 0
-552 -551 0
-552 -550 0
553 -1 -15 0
-553 1 0
-553 15 0
554 -553 464 0
-554 553 0
-554 -464 0
555 -2 -15 0
-555 2 0
-555 15 0
556 -555 478 0
-556 555 0
-556 -478 0
557 478 -554 0
-557 -478 0
-557 554 0
558 -2 -15 0
-558 2 0
-558 15 0
559 -558 -554 0
-559 558 0
-559 554 0
560 559 557 0
-560 -559 0
-560 -557 0
561 556 -560 0
-561 -556 0
-561 560 0
562 -2 -15 0
-562 2 0
-562 15 0
563 -562 554 0
-563 562 0
-563 -554 0
564 562 -554 0
-564 -562 0
-564 554 0
565 564 563 0
-565 -564 0
-565 -563 0
566 478 -565 0
-566 -478 0
-566 565 0
567 -478 565 0
-567 478 0
-567 -565 0
568 566 567 0
-568 -566 0
-568 -567 0
569 -3 -15 0
-569 3 0
-569 15 0
570 -569 492 0
-570 569 0
-570 -492 0
571 492 561 0
-571 -492 0
-571 -561 0
572 -3 -15 0
-572 3 0
-572 15 0
573 -572 561 0
-573 572 0
-573 -561 0
574 571 573 0
-574 -571 0
-574 -573 0
575 -574 570 0
-575 574 0
-575 -570 0
576 -3 -15 0
-576 3 0
-576 15 0
577 -576 -561 0
-577 576 0
-577 561 0
578 576 561 0
-578 -576 0
-578 -561 0
579 577 578 0
-579 -577 0
-579 -578 0
580 492 -579 0
-580 -492 0
-580 579 0
581 -492 579 0
-581 492 0
-581 -579 0
582 580 581 0
-582 -580 0
-582 -581 0
583 -4 -15 0
-583 4 0
-583 15 0
584 -583 506 0
-584 583 0
-584 -506 0
585 506 575 0
-585 -506 0
-585 -575 0
586 -4 -15 0
-586 4 0
-586 15 0
587 -586 575 0
-587 586 0
-587 -575 0
588 587 585 0
-588 -587 0
-588 -585 0
589 584 -588 0
-589 -584 0
-589 588 0
590 -4 -15 0
-590 4 0
-590 15 0
591 -590 -575 0
-591 590 0
-591 575 0
592 590 575 0
-592 -590 0
-592 -575 0
593 591 592 0
-593 -591 0
-593 -592 0
594 506 -593 0
-594 -506 0
-594 593 0
595 -506 593 0
-595 506 0
-595 -593 0
596 594 595 0
-596 -594 0
-596 -595 0
597 -5 -15 0
-597 5 0
-597 15 0
598 -597 520 0
-598 597 0
-598 -520 0
599 589 520 0
-599 -589 0
-599 -520 0
600 -5 -15 0
-600 5 0
-600 15 0
601 -600 589 0
-601 600 0
-601 -589 0
602 599 601 0
-602 -599 0
-602 -601 0
603 -602 598 0
-603 602 0
-603 -598 0
604 -5 -15 0
-604 5 0
-604 15 0
605 -604 -589 0
-605 604 0
-605 589 0
606 604 589 0
-606 -604 0
-606 -589 0
607 606 605 0
-607 -606 0
-607 -605 0
608 -607 520 0
-608 607 0
-608 -520 0
609 607 -520 0
-609 -607 0
-609 520 0
610 609 608 0
-610 -609 0
-610 -608 0
611 -6 -15 0
-611 6 0
-611 15 0
612 -611 534 0
-612 611 0
-612 -534 0
613 603 534 0
-613 -603 0
-613 -534 0
614 -6 -15 0
-614 6 0
-614 15 0
615 -614 603 0
-615 614 0
-615 -603 0
616 615 613 0
-616 -615 0
-616 -613 0
617 -616 612 0
-617 616 0
-617 -612 0
618 -6 -15 0
-618 6 0
-618 15 0
619 -618 -603 0
-619 618 0
-619 603 0
620 618 603 0
-620 -618 0
-620 -603 0
621 619 620 0
-621 -619 0
-621 -620 0
622 -621 534 0
-622 621 0
-622 -534 0
623 621 -534 0
-623 -621 0
-623 534 0
624 623 622 0
-624 -623 0
-624 -622 0
625 -7 -15 0
-625 7 0
-625 15 0
626 -625 548 0
-626 625 0
-626 -548 0
627 617 548 0
-627 -617 0
-627 -548 0
628 -7 -15 0
-628 7 0
-628 15 0
629 -628 617 0
-629 628 0
-629 -617 0
630 629 627 0
-630 -629 0
-630 -627 0
631 -630 626 0
-631 630 0
-631 -626 0
632 -7 -15 0
-632 7 0
-632 15 0
633 -632 -617 0
-633 632 0
-633 617 0
634 632 617 0
-634 -632 0
-634 -617 0
635 634 633 0
-635 -634 0
-635 -633 0
636 -635 548 0
-636 635 0
-636 -548 0
637 635 -548 0
-637 -635 0
-637 548 0
638 636 637 0
-638 -636 0
-638 -637 0
639 -8 -15 0
-639 8 0
-639 15 0
640 -639 541 0
-640 639 0
-640 -541 0
641 541 631 0
-641 -541 0
-641 -631 0
642 -8 -15 0
-642 8 0
-642 15 0
643 -642 631 0
-643 642 0
-643 -631 0
644 643 641 0
-644 -643 0
-644 -641 0
645 640 -644 0
-645 -640 0
-645 644 0
646 -8 -15 0
-646 8 0
-646 15 0
647 -646 -631 0
-647 646 0
-647 631 0
648 646 631 0
-648 -646 0
-648 -631 0
649 647 648 0
-649 -647 0
-649 -648 0
650 541 -649 0
-650 -541 0
-650 649 0
651 -541 649 0
-651 541 0
-651 -649 0
652 650 651 0
-652 -650 0
-652 -651 0
653 -1 -16 0
-653 1 0
-653 16 0
654 653 568 0
-654 -653 0
-654 -568 0
655 -653 -568 0
-655 653 0
-655 568 0
656 654 655 0
-656 -654 0
-656 -655 0
657 -1 -16 0
-657 1 0
-657 16 0
658 -657 568 0
-658 657 0
-658 -568 0
659 -2 -16 0
-659 2 0
-659 16 0
660 -659 582 0
-660 659 0
-660 -582 0
661 582 -658 0
-661 -582 0
-661 658 0
662 -2 -16 0
-662 2 0
-662 16 0
663 -662 -658 0
-663 662 0
-663 658 0
664 661 663 0
-664 -661 0
-664 -663 0
665 -664 660 0
-665 664 0
-665 -660 0
666 -2 -16 0
-666 2 0
-666 16 0
667 -666 658 0
-667 666 0
-667 -658 0
668 666 -658 0
-668 -666 0
-668 658 0
669 667 668 0
-669 -667 0
-669 -668 0
670 -669 582 0
-670 669 0
-670 -582 0
671 669 -582 0
-671 -669 0
-671 582 0
672 671 670 0
-672 -671 0
-672 -670 0
673 -3 -16 0
-673 3 0
-673 16 0
674 -673 596 0
-674 673 0
-674 -596 0
675 665 596 0
-675 -665 0
-675 -596 0
676 -3 -16 0
-676 3 0
-676 16 0
677 -676 665 0
-677 676 0
-677 -665 0
678 677 675 0
-678 -677 0
-678 -675 0
679 674 -678 0
-679 -674 0
-679 678 0
680 -3 -16 0
-680 3 0
-680 16 0
681 -680 -665 0
-681 680 0
-681 665 0
682 680 665 0
-682 -680 0
-682 -665 0
683 681 682 0
-683 -681 0
-683 -682 0
684 596 -683 0
-684 -596 0
-684 683 0
685 -596 683 0
-685 596 0
-685 -683 0
686 685 684 0
-686 -685 0
-686 -684 0
687 -4 -16 0
-687 4 0
-687 16 0
688 -687 610 0
-688 687 0
-688 -610 0
689 679 610 0
-689 -679 0
-689 -610 0
690 -4 -16 0
-690 4 0
-690 16 0
691 -690 679 0
-691 690 0
-691 -679 0
692 689 691 0
-692 -689 0
-692 -691 0
693 688 -692 0
-693 -688 0
-693 692 0
694 -4 -16 0
-694 4 0
-694 16 0
695 -694 -679 0
-695 694 0
-695 679 0
696 694 679 0
-696 -694 0
-696 -679 0
697 696 695 0
-697 -696 0
-697 -695 0
698 -697 610 0
-698 697 0
-698 -610 0
699 697 -610 0
-699 -697 0
-699 610 0
700 698 699 0
-700 -698 0
-700 -699 0
701 -5 -16 0
-701 5 0
-701 16 0
702 -701 624 0
-702 701 0
-702 -624 0
703 693 624 0
-703 -693 0
-703 -624 0
704 -5 -16 0
-704 5 0
-704 16 0
705 -704 693 0
-705 704 0
-705 -693 0
706 705 703 0
-706 -705 0
-706 -703 0
707 -706 702 0
-707 706 0
-707 -702 0
708 -5 -16 0
-708 5 0
-708 16 0
709 -708 -693 0
-709 708 0
-709 693 0
710 708 693 0
-710 -708 0
-710 -693 0
711 710 709 0
-711 -710 0
-711 -709 0
712 -711 624 0
-712 711 0
-712 -624 0
713 711 -624 0
-713 -711 0
-713 624 0
714 712 713 0
-714 -712 0
-714 -713 0
715 -6 -16 0
-715 6 0
-715 16 0
716 -715 638 0
-716 715 0
-716 -638 0
717 638 707 0
-717 -638 0
-717 -707 0
718 -6 -16 0
-718 6 0
-718 16 0
719 -718 707 0
-719 718 0
-719 -707 0
720 717 719 0
-720 -717 0
-720 -719 0
721 716 -720 0
-721 -716 0
-721 720 0
722 -6 -16 0
-722 6 0
-722 16 0
723 -722 -707 0
-723 722 0
-723 707 0
724 722 707 0
-724 -722 0
-724 -707 0
725 723 724 0
-725 -723 0
-725 -724 0
726 638 -725 0
-726 -638 0
-726 725 0
727 -638 725 0
-727 638 0
-727 -725 0
728 726 727 0
-728 -726 0
-728 -727 0
729 -7 -16 0
-729 7 0
-729 16 0
730 -729 652 0
-730 729 0
-730 -652 0
731 721 652 0
-731 -721 0
-731 -652 0
732 -7 -16 0
-732 7 0
-732 16 0
733 -732 721 0
-733 732 0
-733 -721 0
734 731 733 0
-734 -731 0
-734 -733 0
735 -734 730 0
-735 734 0
-735 -730 0
736 -7 -16 0
-736 7 0
-736 16 0
737 -736 -721 0
-737 736 0
-737 721 0
738 736 721 0
-738 -736 0
-738 -721 0
739 738 737 0
-739 -738 0
-739 -737 0
740 -739 652 0
-740 739 0
-740 -652 0
741 739 -652 0
-741 -739 0
-741 652 0
742 740 741 0
-742 -740 0
-742 -741 0
743 -8 -16 0
-743 8 0
-743 16 0
744 -743 645 0
-744 743 0
-744 -645 0
745 735 645 0
-745 -735 0
-745 -645 0
746 -8 -16 0
-746 8 0
-746 16 0
747 -746 735 0
-747 746 0
-747 -735 0
748 747 745 0
-748 -747 0
-748 -745 0
749 -748 744 0
-749 748 0
-749 -744 0
750 -8 -16 0
-750 8 0
-750 16 0
751 -750 -735 0
-751 750 0
-751 735 0
752 750 735 0
-752 -750 0
-752 -735 0
753 751 752 0
-753 -751 0
-753 -752 0
754 -753 645 0
-754 753 0
-754 -645 0
755 753 -645 0
-755 -753 0
-755 645 0
756 754 755 0
-756 -754 0
-756 -755 0
757 -1 -9 0
-757 1 0
-757 9 0
-758 757 0
758 -757 0
-759 -21 0
759 21 0
-760 -136 0
760 136 0
-761 -240 0
761 240 0
-762 -344 0
762 344 0
-763 -448 0
763 448 0
-764 -552 0
764 552 0
-765 -656 0
765 656 0
-766 -672 0
766 672 0
-767 -686 0
767 686 0
-768 -700 0
768 700 0
-769 -714 0
769 714 0
-770 -728 0
770 728 0
-771 -742 0
771 742 0
-772 -756 0
772 756 0
-773 -749 0
773 749 0
-758 0
-759 0
760 0
761 0
-762 0
763 0
764 0
765 0
-766 0
767 0
768 0
769 0
-770 0
771 0
-772 0
-773 0
